unsat
(:conflicts            1
 :max-generation       1
 :max-memory           27.57
 :memory               22.01
 :mk-bool-var          6259
 :mk-clause            552
 :mk-clause-binary     3262
 :num-allocs           22780059
 :num-checks           1
 :quant-instantiations 651
 :rlimit-count         293707
 :time                 0.03)
